(declare-const havoc Int)
(declare-const |K:47:48:51:54| Int)
(declare-const |havoc:4| Int)
(declare-const |k':41:49:52:55| Int)
(declare-const |j':40:50:53:56| Int)
(declare-const |havoc:2| Int)
(assert (and (= havoc 0) (= (+ (- |havoc:4|) |havoc:2|) 0)
               (< (- |havoc:4|) 0)
               (or (not (and (<= (- |K:47:48:51:54|) 0)
                               (<= |K:47:48:51:54| 0)))
                     (= (+ |k':41:49:52:55| |K:47:48:51:54| (- |havoc:2|)) 0))
               (or (not (<= (+ (- |K:47:48:51:54|) 1) 0))
                     (= (+ (* 2 |k':41:49:52:55|) (* 2 |K:47:48:51:54|)
                             (- |havoc:4|) (- |havoc:2|) havoc) 0))
               (or (not (and (<= (- |K:47:48:51:54|) 0)
                               (<= |K:47:48:51:54| 0)))
                     (= (+ |j':40:50:53:56| (- |K:47:48:51:54|) (- havoc)) 0))
               (or (not (<= (+ (- |K:47:48:51:54|) 1) 0))
                     (= (+ (* 2 |j':40:50:53:56|) (* -2 |K:47:48:51:54|)
                             (- |havoc:4|) |havoc:2| (- havoc)) 0))
               (or (and (= |K:47:48:51:54| 0)
                          (= (+ (- |k':41:49:52:55|) |havoc:2|) 0)
                          (= (+ (- |j':40:50:53:56|) havoc) 0))
                     (and (<= (+ (- |K:47:48:51:54|) 1) 0)
                            (= (+ (- |havoc:4|) |havoc:2| havoc) 0)
                            (<= (- havoc) 0) (<= (+ (- |havoc:4|) havoc 1) 0)
                            (= (+ |j':40:50:53:56| |k':41:49:52:55|
                                    (- |havoc:4|)) 0)
                            (<= (- |k':41:49:52:55|) 0)
                            (<= (+ |k':41:49:52:55| (- |havoc:4|) 1) 0)))
               (<= (- |K:47:48:51:54|) 0) (<= (- |j':40:50:53:56|) 0)
               (<= (- |k':41:49:52:55|) 0) (< (- |havoc:4|) 0)
               (= (+ |j':40:50:53:56| |k':41:49:52:55| (- |havoc:4|)) 0)
               (or (<= (+ (- |j':40:50:53:56|) |havoc:4|) 0)
                     (and (< (+ |j':40:50:53:56| (- |havoc:4|)) 0)
                            (<= |havoc:4| 0))) (not (= |k':41:49:52:55| 0))))
(check-sat)
